\ Model objective_function_copy
\ LP format - for model browsing. Use MPS format to capture full model detail.
Minimize
 
Subject To
 c_e_res_vertex(3518_2019_0_South_Elec_Demand)_:
   - e_pro_in(3518_2019_0_South_Feed_in_Elec)
   + e_pro_out(3518_2019_0_South_Biomass_plant_Elec)
   + e_pro_out(3518_2019_0_South_Coal_plant_Elec)
   + e_pro_out(3518_2019_0_South_Gas_plant_Elec)
   + e_pro_out(3518_2019_0_South_Hydro_plant_Elec)
   + e_pro_out(3518_2019_0_South_Photovoltaics_Elec)
   + e_pro_out(3518_2019_0_South_Purchase_Elec)
   + e_pro_out(3518_2019_0_South_Slack_powerplant_Elec)
   + e_pro_out(3518_2019_0_South_Wind_park_Elec) = 4297.678630820951
 c_e_def_process_input(3518_2019_0_South_Feed_in_Elec)_:
   e_pro_in(3518_2019_0_South_Feed_in_Elec)
   - tau_pro(3518_2019_0_South_Feed_in) = 0
 c_e_def_process_input(3518_2019_0_South_Photovoltaics_Solar)_:
   e_pro_in(3518_2019_0_South_Photovoltaics_Solar)
   - tau_pro(3518_2019_0_South_Photovoltaics) = 0
 c_e_def_process_output(3518_2019_0_South_Biomass_plant_Elec)_:
   e_pro_out(3518_2019_0_South_Biomass_plant_Elec)
   - 0.35 tau_pro(3518_2019_0_South_Biomass_plant) = 0
 c_e_def_process_output(3518_2019_0_South_Coal_plant_Elec)_:
   e_pro_out(3518_2019_0_South_Coal_plant_Elec)
   - 0.4 tau_pro(3518_2019_0_South_Coal_plant) = 0
 c_e_def_process_output(3518_2019_0_South_Gas_plant_Elec)_:
   e_pro_out(3518_2019_0_South_Gas_plant_Elec)
   - 0.6 tau_pro(3518_2019_0_South_Gas_plant) = 0
 c_e_def_process_output(3518_2019_0_South_Hydro_plant_Elec)_:
   e_pro_out(3518_2019_0_South_Hydro_plant_Elec)
   - tau_pro(3518_2019_0_South_Hydro_plant) = 0
 c_e_def_process_output(3518_2019_0_South_Photovoltaics_Elec)_:
   e_pro_out(3518_2019_0_South_Photovoltaics_Elec)
   - tau_pro(3518_2019_0_South_Photovoltaics) = 0
 c_e_def_process_output(3518_2019_0_South_Purchase_Elec)_:
   e_pro_out(3518_2019_0_South_Purchase_Elec)
   - tau_pro(3518_2019_0_South_Purchase) = 0
 c_e_def_process_output(3518_2019_0_South_Slack_powerplant_Elec)_:
   e_pro_out(3518_2019_0_South_Slack_powerplant_Elec)
   - tau_pro(3518_2019_0_South_Slack_powerplant) = 0
 c_e_def_process_output(3518_2019_0_South_Wind_park_Elec)_:
   e_pro_out(3518_2019_0_South_Wind_park_Elec)
   - tau_pro(3518_2019_0_South_Wind_park) = 0
 c_e_def_intermittent_supply(3518_2019_0_South_Photovoltaics_Solar)_:
   e_pro_in(3518_2019_0_South_Photovoltaics_Solar)
   - 0.6491891646819028 cap_pro_new(2019_0_South_Photovoltaics) = 0
 c_u_res_process_throughput_by_capacity(3518_2019_0_South_Feed_in)_:
   tau_pro(3518_2019_0_South_Feed_in) <= 0
 r_l_res_process_capacity(2019_0_South_Photovoltaics)_:
   cap_pro_new(2019_0_South_Photovoltaics) >= 20000
Bounds
 e_pro_in(3518_2019_0_South_Feed_in_Elec) free
 e_pro_out(3518_2019_0_South_Biomass_plant_Elec) free
 e_pro_out(3518_2019_0_South_Coal_plant_Elec) free
 e_pro_out(3518_2019_0_South_Gas_plant_Elec) free
 e_pro_out(3518_2019_0_South_Hydro_plant_Elec) free
 e_pro_out(3518_2019_0_South_Photovoltaics_Elec) free
 e_pro_out(3518_2019_0_South_Purchase_Elec) free
 e_pro_out(3518_2019_0_South_Slack_powerplant_Elec) free
 e_pro_out(3518_2019_0_South_Wind_park_Elec) free
 tau_pro(3518_2019_0_South_Feed_in) free
 e_pro_in(3518_2019_0_South_Photovoltaics_Solar) free
 tau_pro(3518_2019_0_South_Photovoltaics) free
 cap_pro_new(2019_0_South_Photovoltaics) free
End
